c turning on binary mode checking
c parsing input formula with 202048 variables and 780990 clauses
c finished parsing, read 2649379 bytes from proof file
c detected empty clause; start verification via backward checking
c 3606 of 780990 clauses in core                            
c 1147 of 103917 lemmas in core using 19836 resolution steps
c 0 RAT lemmas in core; 52 redundant literals in core lemmas
s VERIFIED
c verification time: 0.958 seconds
